(set-logic HORN)
(declare-fun !inv0 (Int (Array Int Int) Bool Int ) Bool)
(declare-fun !inv1 (Int (Array Int Int) Bool Int Int ) Bool)
(assert (forall ((N@0 Int)(a@0 (Array Int Int))(r@0 Bool)(i@0 Int)) (=> (and (> |N@0| 0) (= |r@0| true) (= |i@0| 1)) (!inv0 |N@0| |a@0| |r@0| |i@0|))))
(assert (forall ((r@0 Bool)(N@0 Int)(a@0 (Array Int Int))(j@1 Int)(i@0 Int)) (=> (and (!inv0 |N@0| |a@0| |r@0| |i@0|) (= |j@1| (- |i@0| 1)) (< |i@0| |N@0|) |r@0|) (!inv1 |N@0| |a@0| |r@0| |i@0| |j@1|))))
(assert (forall ((N@0 Int)(a@0 (Array Int Int))(r@0 Bool)(i@0 Int)(j@0 Int)(i@1 Int)) (=> (and (!inv1 |N@0| |a@0| |r@0| |i@0| |j@0|) (not (and (>= |j@0| 0) |r@0|)) (= |i@1| (+ |i@0| 1))) (!inv0 |N@0| |a@0| |r@0| |i@1|))))
(assert (forall ((N@0 Int)(a@0 (Array Int Int))(r@0 Bool)(i@0 Int)) (=> (and (!inv0 |N@0| |a@0| |r@0| |i@0|) (not (and (< |i@0| |N@0|) |r@0|)) |r@0| (not (forall ((x@0 Int)(y@0 Int)) (=> (and (<= 0 |x@0|) (< |x@0| |N@0|)) (=> (and (<= (+ |x@0| 1) |y@0|) (< |y@0| |N@0|)) (not (= (select |a@0| |x@0|) (select |a@0| |y@0|)))))))) false)))
(assert (forall ((N@0 Int)(a@0 (Array Int Int))(r@0 Bool)(i@0 Int)(j@0 Int)(j@1 Int)) (=> (and (!inv1 |N@0| |a@0| |r@0| |i@0| |j@0|) (= |j@1| (- |j@0| 1)) (not (= (select |a@0| |i@0|) (select |a@0| |j@0|))) (>= |j@0| 0) |r@0|) (!inv1 |N@0| |a@0| |r@0| |i@0| |j@1|))))
(assert (forall ((N@0 Int)(a@0 (Array Int Int))(r@0 Bool)(i@0 Int)(j@0 Int)(j@1 Int)(r@1 Bool)) (=> (and (!inv1 |N@0| |a@0| |r@1| |i@0| |j@0|) (= |j@1| (- |j@0| 1)) (= (select |a@0| |i@0|) (select |a@0| |j@0|)) (= |r@0| true) (>= |j@0| 0) |r@1|) (!inv1 |N@0| |a@0| |r@0| |i@0| |j@1|))))
(check-sat)